# avogadro generated ORCA input file 
# Basic Mode
# 
! B3LYP def2-TZVP Opt
%pal nprocs 4 end

* xyz 0 1
   C       -4.42246       -4.13954        0.47354
   C       -1.92923       -4.12800        0.42854
   C       -5.39332       -3.17365        0.38965
   C       -3.20217       -3.45419        0.38538
   C        0.57100       -4.17834        0.37896
   C       -0.70422       -3.49096        0.33882
   H       -4.59443       -5.21928        0.58515
   C        1.58947       -3.17179        0.27765
   C       -4.71918       -1.94442        0.25400
   H       -2.00521       -5.21438        0.53710
   N       -3.35203       -2.10271        0.24999
   H        0.72401       -5.25884        0.49693
  Ni       -1.94929       -0.70752        0.08035
   C        0.83825       -1.98235        0.14669
   N       -0.52699       -2.12229        0.19903
   C       -5.37805       -0.77426        0.14033
   H       -6.47454       -3.35182        0.42360
   C        1.52381       -0.85686       -0.00030
   C       -4.71509        0.53880       -0.00340
   N       -3.35897        0.71091       -0.03898
   C        0.81733        0.49556       -0.10204
   C       -5.42223        1.76417       -0.12492
   N       -0.55828        0.67239       -0.08751
   H       -6.47077       -0.78093        0.15481
   C       -3.23182        2.06704       -0.18733
   C       -0.75210        2.04348       -0.23139
   C        1.43220        1.73393       -0.25697
   C       -4.46948        2.75166       -0.24354
   C       -1.95819        2.72045       -0.28187
   C        0.48354        2.69731       -0.33167
   H       -6.51139        1.94020       -0.12896
   H        2.38410        2.03606       -0.31564
   H       -4.68935        3.83884       -0.35797
   H       -2.00696        3.81321       -0.40215
   H        0.67593        3.76863       -0.44374
   C        5.72174        4.48410        1.96999
   C        4.50816        3.80523        1.99923
   C        4.45849        2.38815        2.20397
   C        5.72188        1.64087        2.16888
   C        6.91337        2.42209        2.32777
   C        6.89657        3.81158        2.21269
   C        3.34518        4.57116        1.86448
   C        2.09838        3.99975        2.00359
   C        1.98355        2.66567        2.37989
   C        3.14612        1.84862        2.52103
   H        7.81296        4.38744        2.28445
   H        5.75686        5.56136        1.84909
   H        3.40026        5.63656        1.67046
   H        1.21943        4.62612        1.89656
   C        8.13968        1.82625        2.61269
   C        8.23946        0.46231        2.75127
   C        7.16057       -0.35752        2.43392
   C        5.91155        0.19052        2.00532
   H        9.02638        2.42792        2.78063
   H        9.19778        0.04001        3.03365
   C        4.99478       -0.76844        1.37628
   C        5.21648       -2.17157        1.51494
   C        6.38462       -2.62249        2.13445
   C        7.36394       -1.73424        2.51968
   H        6.59489       -3.67929        2.23867
   H        8.30127       -2.13542        2.88985
   C        0.69964        2.15230        2.64169
   C        0.54060        0.85243        3.10317
   C        1.65917        0.06584        3.33969
   C        2.93742        0.55658        3.06706
   H       -0.18290        2.76709        2.50213
   H       -0.44862        0.46846        3.31438
   H        1.53874       -0.93007        3.74631
   H        3.74816       -0.09261        3.33053
   C        3.91769       -0.41408        0.54472
   C        2.96266       -1.30219        0.12932
   C        3.07819       -2.67164        0.36083
   C        4.28292       -3.14096        1.00426
   O        4.52897       -4.45082        1.23628
   C        3.74950       -5.49620        0.80007
   H        2.74309       -5.42981        1.25491
   H        4.21479       -6.45073        1.11852
   H        3.67509       -5.49104       -0.30868
   O        3.80281        0.80038        0.15345
   C        4.50577        1.44440       -0.85292
   H        5.53599        1.50287       -0.52747
   H        4.40220        0.89174       -1.80187
   H        4.13421        2.50007       -1.03420
*

